certificates/rado_a13_c236_N28.cnf
c Rad2 upper bound instance: x1 + 13*x2 - x3 = 236, interval [1,28]
p cnf 28 120
1 12 19 0
-1 -12 -19 0
1 20 25 0
-1 -20 -25 0
2 13 19 0
-2 -13 -19 0
2 20 26 0
-2 -20 -26 0
1 3 18 0
-1 -3 -18 0
3 14 19 0
-3 -14 -19 0
3 20 27 0
-3 -20 -27 0
2 4 18 0
-2 -4 -18 0
4 15 19 0
-4 -15 -19 0
4 20 28 0
-4 -20 -28 0
3 5 18 0
-3 -5 -18 0
5 16 19 0
-5 -16 -19 0
4 6 18 0
-4 -6 -18 0
6 17 19 0
-6 -17 -19 0
5 7 18 0
-5 -7 -18 0
7 18 19 0
-7 -18 -19 0
6 8 18 0
-6 -8 -18 0
8 19 0
-8 -19 0
7 9 18 0
-7 -9 -18 0
9 19 20 0
-9 -19 -20 0
8 10 18 0
-8 -10 -18 0
10 19 21 0
-10 -19 -21 0
9 11 18 0
-9 -11 -18 0
11 19 22 0
-11 -19 -22 0
10 12 18 0
-10 -12 -18 0
12 19 23 0
-12 -19 -23 0
11 13 18 0
-11 -13 -18 0
13 19 24 0
-13 -19 -24 0
12 14 18 0
-12 -14 -18 0
14 19 25 0
-14 -19 -25 0
13 15 18 0
-13 -15 -18 0
15 19 26 0
-15 -19 -26 0
1 16 17 0
-1 -16 -17 0
14 16 18 0
-14 -16 -18 0
16 19 27 0
-16 -19 -27 0
2 17 0
-2 -17 0
15 17 18 0
-15 -17 -18 0
17 19 28 0
-17 -19 -28 0
3 17 18 0
-3 -17 -18 0
16 18 0
-16 -18 0
4 17 19 0
-4 -17 -19 0
17 18 19 0
-17 -18 -19 0
5 17 20 0
-5 -17 -20 0
18 20 0
-18 -20 0
6 17 21 0
-6 -17 -21 0
18 19 21 0
-18 -19 -21 0
7 17 22 0
-7 -17 -22 0
18 20 22 0
-18 -20 -22 0
8 17 23 0
-8 -17 -23 0
18 21 23 0
-18 -21 -23 0
9 17 24 0
-9 -17 -24 0
18 22 24 0
-18 -22 -24 0
10 17 25 0
-10 -17 -25 0
18 23 25 0
-18 -23 -25 0
11 17 26 0
-11 -17 -26 0
18 24 26 0
-18 -24 -26 0
12 17 27 0
-12 -17 -27 0
18 25 27 0
-18 -25 -27 0
13 17 28 0
-13 -17 -28 0
18 26 28 0
-18 -26 -28 0
