certificates/rado_a13_c236_N28.drat
-26 -28 0
d -26 -18 -28 0
3 18 0
d 3 1 18 0
-20 -27 0
d -20 -3 -27 0
20 26 0
d 20 2 26 0
-28 0
18 0
-16 0
-20 0
26 0
4 0
-24 0
-2 0
-6 0
17 0
-19 0
-15 0
-3 0
-11 0
8 0
9 0
27 0
13 0
14 0
5 0
22 0
-10 0
-23 0
-7 0
-25 0
-12 0
21 0
0
